(set-option :produce-models true)
(set-logic QF_LRA)
(set-info :notes | Strip-packing problem.|)
(declare-fun x0 () Real)
(declare-fun y0 () Real)
(declare-fun x1 () Real)
(declare-fun y1 () Real)
(declare-fun x2 () Real)
(declare-fun y2 () Real)
(declare-fun x3 () Real)
(declare-fun y3 () Real)
(declare-fun x4 () Real)
(declare-fun y4 () Real)
(declare-fun x5 () Real)
(declare-fun y5 () Real)
(declare-fun x6 () Real)
(declare-fun y6 () Real)
(declare-fun x7 () Real)
(declare-fun y7 () Real)
(declare-fun x8 () Real)
(declare-fun y8 () Real)
(declare-fun x9 () Real)
(declare-fun y9 () Real)
(declare-fun x10 () Real)
(declare-fun y10 () Real)
(declare-fun x11 () Real)
(declare-fun y11 () Real)
(declare-fun x12 () Real)
(declare-fun y12 () Real)
(declare-fun x13 () Real)
(declare-fun y13 () Real)
(declare-fun x14 () Real)
(declare-fun y14 () Real)
(declare-fun z () Real)
(declare-fun c () Real)
(assert (and (= c z) (and (>= x0 0) 
(and (>= y0 0) 
(and (>= x1 0) 
(and (>= y1 0) 
(and (>= x2 0) 
(and (>= y2 0) 
(and (>= x3 0) 
(and (>= y3 0) 
(and (>= x4 0) 
(and (>= y4 0) 
(and (>= x5 0) 
(and (>= y5 0) 
(and (>= x6 0) 
(and (>= y6 0) 
(and (>= x7 0) 
(and (>= y7 0) 
(and (>= x8 0) 
(and (>= y8 0) 
(and (>= x9 0) 
(and (>= y9 0) 
(and (>= x10 0) 
(and (>= y10 0) 
(and (>= x11 0) 
(and (>= y11 0) 
(and (>= x12 0) 
(and (>= y12 0) 
(and (>= x13 0) 
(and (>= y13 0) 
(and (>= x14 0) 
(and (>= y14 0) 
(and (>= z 0) 
(and (>= c 0) 
(and (<= (+ x0 0.3781324869) z) 
(and (<= 0.934671184 y0) 
(and (<= y0 1.0) 
(and (<= x0 (- 5.1229108952 0.3781324869)) 
(and (>= x0 0) 
(and (<= (+ x1 0.3157590476) z) 
(and (<= 0.9041626915 y1) 
(and (<= y1 1.0) 
(and (<= x1 (- 5.1229108952 0.3157590476)) 
(and (>= x1 0) 
(and (<= (+ x2 0.8527904138) z) 
(and (<= 0.8575646953 y2) 
(and (<= y2 1.0) 
(and (<= x2 (- 5.1229108952 0.8527904138)) 
(and (>= x2 0) 
(and (<= (+ x3 0.8967366956) z) 
(and (<= 0.6127166831 y3) 
(and (<= y3 1.0) 
(and (<= x3 (- 5.1229108952 0.8967366956)) 
(and (>= x3 0) 
(and (<= (+ x4 0.5597181831) z) 
(and (<= 0.5878017918 y4) 
(and (<= y4 1.0) 
(and (<= x4 (- 5.1229108952 0.5597181831)) 
(and (>= x4 0) 
(and (<= (+ x5 0.6078839297) z) 
(and (<= 0.5856813544 y5) 
(and (<= y5 1.0) 
(and (<= x5 (- 5.1229108952 0.6078839297)) 
(and (>= x5 0) 
(and (<= (+ x6 0.6788049448) z) 
(and (<= 0.4517837032 y6) 
(and (<= y6 1.0) 
(and (<= x6 (- 5.1229108952 0.6788049448)) 
(and (>= x6 0) 
(and (<= (+ x7 0.8330851937) z) 
(and (<= 0.3948761423 y7) 
(and (<= y7 1.0) 
(and (<= x7 (- 5.1229108952 0.8330851937)) 
(and (>= x7 0) 
(and (<= (+ x8 0.689933589) z) 
(and (<= 0.3063221952 y8) 
(and (<= y8 1.0) 
(and (<= x8 (- 5.1229108952 0.689933589)) 
(and (>= x8 0) 
(and (<= (+ x9 0.3391191741) z) 
(and (<= 0.2449603533 y9) 
(and (<= y9 1.0) 
(and (<= x9 (- 5.1229108952 0.3391191741)) 
(and (>= x9 0) 
(and (<= (+ x10 0.2747358493) z) 
(and (<= 0.1835056081 y10) 
(and (<= y10 1.0) 
(and (<= x10 (- 5.1229108952 0.2747358493)) 
(and (>= x10 0) 
(and (<= (+ x11 0.5854673276) z) 
(and (<= 0.1711577816 y11) 
(and (<= y11 1.0) 
(and (<= x11 (- 5.1229108952 0.5854673276)) 
(and (>= x11 0) 
(and (<= (+ x12 0.4329544869) z) 
(and (<= 0.16938683 y12) 
(and (<= y12 1.0) 
(and (<= x12 (- 5.1229108952 0.4329544869)) 
(and (>= x12 0) 
(and (<= (+ x13 0.2119488806) z) 
(and (<= 0.1353040446 y13) 
(and (<= y13 1.0) 
(and (<= x13 (- 5.1229108952 0.2119488806)) 
(and (>= x13 0) 
(and (<= (+ x14 0.671963968) z) 
(and (<= 0.0853776792 y14) 
(and (<= y14 1.0) 
(and (<= x14 (- 5.1229108952 0.671963968)) 
(and (>= x14 0) 
(and (<= c 5.1229108952) 
(and (or (<= (+ x0 0.3781324869) x1) (or (<= (+ x1 0.3157590476) x0) (or (>= (- y0 0.934671184) y1) (or (>= (- y1 0.9041626915) y0))))) 
(and (or (<= (+ x0 0.3781324869) x2) (or (<= (+ x2 0.8527904138) x0) (or (>= (- y0 0.934671184) y2) (or (>= (- y2 0.8575646953) y0))))) 
(and (or (<= (+ x0 0.3781324869) x3) (or (<= (+ x3 0.8967366956) x0) (or (>= (- y0 0.934671184) y3) (or (>= (- y3 0.6127166831) y0))))) 
(and (or (<= (+ x0 0.3781324869) x4) (or (<= (+ x4 0.5597181831) x0) (or (>= (- y0 0.934671184) y4) (or (>= (- y4 0.5878017918) y0))))) 
(and (or (<= (+ x0 0.3781324869) x5) (or (<= (+ x5 0.6078839297) x0) (or (>= (- y0 0.934671184) y5) (or (>= (- y5 0.5856813544) y0))))) 
(and (or (<= (+ x0 0.3781324869) x6) (or (<= (+ x6 0.6788049448) x0) (or (>= (- y0 0.934671184) y6) (or (>= (- y6 0.4517837032) y0))))) 
(and (or (<= (+ x0 0.3781324869) x7) (or (<= (+ x7 0.8330851937) x0) (or (>= (- y0 0.934671184) y7) (or (>= (- y7 0.3948761423) y0))))) 
(and (or (<= (+ x0 0.3781324869) x8) (or (<= (+ x8 0.689933589) x0) (or (>= (- y0 0.934671184) y8) (or (>= (- y8 0.3063221952) y0))))) 
(and (or (<= (+ x0 0.3781324869) x9) (or (<= (+ x9 0.3391191741) x0) (or (>= (- y0 0.934671184) y9) (or (>= (- y9 0.2449603533) y0))))) 
(and (or (<= (+ x0 0.3781324869) x10) (or (<= (+ x10 0.2747358493) x0) (or (>= (- y0 0.934671184) y10) (or (>= (- y10 0.1835056081) y0))))) 
(and (or (<= (+ x0 0.3781324869) x11) (or (<= (+ x11 0.5854673276) x0) (or (>= (- y0 0.934671184) y11) (or (>= (- y11 0.1711577816) y0))))) 
(and (or (<= (+ x0 0.3781324869) x12) (or (<= (+ x12 0.4329544869) x0) (or (>= (- y0 0.934671184) y12) (or (>= (- y12 0.16938683) y0))))) 
(and (or (<= (+ x0 0.3781324869) x13) (or (<= (+ x13 0.2119488806) x0) (or (>= (- y0 0.934671184) y13) (or (>= (- y13 0.1353040446) y0))))) 
(and (or (<= (+ x0 0.3781324869) x14) (or (<= (+ x14 0.671963968) x0) (or (>= (- y0 0.934671184) y14) (or (>= (- y14 0.0853776792) y0))))) 
(and (or (<= (+ x1 0.3157590476) x2) (or (<= (+ x2 0.8527904138) x1) (or (>= (- y1 0.9041626915) y2) (or (>= (- y2 0.8575646953) y1))))) 
(and (or (<= (+ x1 0.3157590476) x3) (or (<= (+ x3 0.8967366956) x1) (or (>= (- y1 0.9041626915) y3) (or (>= (- y3 0.6127166831) y1))))) 
(and (or (<= (+ x1 0.3157590476) x4) (or (<= (+ x4 0.5597181831) x1) (or (>= (- y1 0.9041626915) y4) (or (>= (- y4 0.5878017918) y1))))) 
(and (or (<= (+ x1 0.3157590476) x5) (or (<= (+ x5 0.6078839297) x1) (or (>= (- y1 0.9041626915) y5) (or (>= (- y5 0.5856813544) y1))))) 
(and (or (<= (+ x1 0.3157590476) x6) (or (<= (+ x6 0.6788049448) x1) (or (>= (- y1 0.9041626915) y6) (or (>= (- y6 0.4517837032) y1))))) 
(and (or (<= (+ x1 0.3157590476) x7) (or (<= (+ x7 0.8330851937) x1) (or (>= (- y1 0.9041626915) y7) (or (>= (- y7 0.3948761423) y1))))) 
(and (or (<= (+ x1 0.3157590476) x8) (or (<= (+ x8 0.689933589) x1) (or (>= (- y1 0.9041626915) y8) (or (>= (- y8 0.3063221952) y1))))) 
(and (or (<= (+ x1 0.3157590476) x9) (or (<= (+ x9 0.3391191741) x1) (or (>= (- y1 0.9041626915) y9) (or (>= (- y9 0.2449603533) y1))))) 
(and (or (<= (+ x1 0.3157590476) x10) (or (<= (+ x10 0.2747358493) x1) (or (>= (- y1 0.9041626915) y10) (or (>= (- y10 0.1835056081) y1))))) 
(and (or (<= (+ x1 0.3157590476) x11) (or (<= (+ x11 0.5854673276) x1) (or (>= (- y1 0.9041626915) y11) (or (>= (- y11 0.1711577816) y1))))) 
(and (or (<= (+ x1 0.3157590476) x12) (or (<= (+ x12 0.4329544869) x1) (or (>= (- y1 0.9041626915) y12) (or (>= (- y12 0.16938683) y1))))) 
(and (or (<= (+ x1 0.3157590476) x13) (or (<= (+ x13 0.2119488806) x1) (or (>= (- y1 0.9041626915) y13) (or (>= (- y13 0.1353040446) y1))))) 
(and (or (<= (+ x1 0.3157590476) x14) (or (<= (+ x14 0.671963968) x1) (or (>= (- y1 0.9041626915) y14) (or (>= (- y14 0.0853776792) y1))))) 
(and (or (<= (+ x2 0.8527904138) x3) (or (<= (+ x3 0.8967366956) x2) (or (>= (- y2 0.8575646953) y3) (or (>= (- y3 0.6127166831) y2))))) 
(and (or (<= (+ x2 0.8527904138) x4) (or (<= (+ x4 0.5597181831) x2) (or (>= (- y2 0.8575646953) y4) (or (>= (- y4 0.5878017918) y2))))) 
(and (or (<= (+ x2 0.8527904138) x5) (or (<= (+ x5 0.6078839297) x2) (or (>= (- y2 0.8575646953) y5) (or (>= (- y5 0.5856813544) y2))))) 
(and (or (<= (+ x2 0.8527904138) x6) (or (<= (+ x6 0.6788049448) x2) (or (>= (- y2 0.8575646953) y6) (or (>= (- y6 0.4517837032) y2))))) 
(and (or (<= (+ x2 0.8527904138) x7) (or (<= (+ x7 0.8330851937) x2) (or (>= (- y2 0.8575646953) y7) (or (>= (- y7 0.3948761423) y2))))) 
(and (or (<= (+ x2 0.8527904138) x8) (or (<= (+ x8 0.689933589) x2) (or (>= (- y2 0.8575646953) y8) (or (>= (- y8 0.3063221952) y2))))) 
(and (or (<= (+ x2 0.8527904138) x9) (or (<= (+ x9 0.3391191741) x2) (or (>= (- y2 0.8575646953) y9) (or (>= (- y9 0.2449603533) y2))))) 
(and (or (<= (+ x2 0.8527904138) x10) (or (<= (+ x10 0.2747358493) x2) (or (>= (- y2 0.8575646953) y10) (or (>= (- y10 0.1835056081) y2))))) 
(and (or (<= (+ x2 0.8527904138) x11) (or (<= (+ x11 0.5854673276) x2) (or (>= (- y2 0.8575646953) y11) (or (>= (- y11 0.1711577816) y2))))) 
(and (or (<= (+ x2 0.8527904138) x12) (or (<= (+ x12 0.4329544869) x2) (or (>= (- y2 0.8575646953) y12) (or (>= (- y12 0.16938683) y2))))) 
(and (or (<= (+ x2 0.8527904138) x13) (or (<= (+ x13 0.2119488806) x2) (or (>= (- y2 0.8575646953) y13) (or (>= (- y13 0.1353040446) y2))))) 
(and (or (<= (+ x2 0.8527904138) x14) (or (<= (+ x14 0.671963968) x2) (or (>= (- y2 0.8575646953) y14) (or (>= (- y14 0.0853776792) y2))))) 
(and (or (<= (+ x3 0.8967366956) x4) (or (<= (+ x4 0.5597181831) x3) (or (>= (- y3 0.6127166831) y4) (or (>= (- y4 0.5878017918) y3))))) 
(and (or (<= (+ x3 0.8967366956) x5) (or (<= (+ x5 0.6078839297) x3) (or (>= (- y3 0.6127166831) y5) (or (>= (- y5 0.5856813544) y3))))) 
(and (or (<= (+ x3 0.8967366956) x6) (or (<= (+ x6 0.6788049448) x3) (or (>= (- y3 0.6127166831) y6) (or (>= (- y6 0.4517837032) y3))))) 
(and (or (<= (+ x3 0.8967366956) x7) (or (<= (+ x7 0.8330851937) x3) (or (>= (- y3 0.6127166831) y7) (or (>= (- y7 0.3948761423) y3))))) 
(and (or (<= (+ x3 0.8967366956) x8) (or (<= (+ x8 0.689933589) x3) (or (>= (- y3 0.6127166831) y8) (or (>= (- y8 0.3063221952) y3))))) 
(and (or (<= (+ x3 0.8967366956) x9) (or (<= (+ x9 0.3391191741) x3) (or (>= (- y3 0.6127166831) y9) (or (>= (- y9 0.2449603533) y3))))) 
(and (or (<= (+ x3 0.8967366956) x10) (or (<= (+ x10 0.2747358493) x3) (or (>= (- y3 0.6127166831) y10) (or (>= (- y10 0.1835056081) y3))))) 
(and (or (<= (+ x3 0.8967366956) x11) (or (<= (+ x11 0.5854673276) x3) (or (>= (- y3 0.6127166831) y11) (or (>= (- y11 0.1711577816) y3))))) 
(and (or (<= (+ x3 0.8967366956) x12) (or (<= (+ x12 0.4329544869) x3) (or (>= (- y3 0.6127166831) y12) (or (>= (- y12 0.16938683) y3))))) 
(and (or (<= (+ x3 0.8967366956) x13) (or (<= (+ x13 0.2119488806) x3) (or (>= (- y3 0.6127166831) y13) (or (>= (- y13 0.1353040446) y3))))) 
(and (or (<= (+ x3 0.8967366956) x14) (or (<= (+ x14 0.671963968) x3) (or (>= (- y3 0.6127166831) y14) (or (>= (- y14 0.0853776792) y3))))) 
(and (or (<= (+ x4 0.5597181831) x5) (or (<= (+ x5 0.6078839297) x4) (or (>= (- y4 0.5878017918) y5) (or (>= (- y5 0.5856813544) y4))))) 
(and (or (<= (+ x4 0.5597181831) x6) (or (<= (+ x6 0.6788049448) x4) (or (>= (- y4 0.5878017918) y6) (or (>= (- y6 0.4517837032) y4))))) 
(and (or (<= (+ x4 0.5597181831) x7) (or (<= (+ x7 0.8330851937) x4) (or (>= (- y4 0.5878017918) y7) (or (>= (- y7 0.3948761423) y4))))) 
(and (or (<= (+ x4 0.5597181831) x8) (or (<= (+ x8 0.689933589) x4) (or (>= (- y4 0.5878017918) y8) (or (>= (- y8 0.3063221952) y4))))) 
(and (or (<= (+ x4 0.5597181831) x9) (or (<= (+ x9 0.3391191741) x4) (or (>= (- y4 0.5878017918) y9) (or (>= (- y9 0.2449603533) y4))))) 
(and (or (<= (+ x4 0.5597181831) x10) (or (<= (+ x10 0.2747358493) x4) (or (>= (- y4 0.5878017918) y10) (or (>= (- y10 0.1835056081) y4))))) 
(and (or (<= (+ x4 0.5597181831) x11) (or (<= (+ x11 0.5854673276) x4) (or (>= (- y4 0.5878017918) y11) (or (>= (- y11 0.1711577816) y4))))) 
(and (or (<= (+ x4 0.5597181831) x12) (or (<= (+ x12 0.4329544869) x4) (or (>= (- y4 0.5878017918) y12) (or (>= (- y12 0.16938683) y4))))) 
(and (or (<= (+ x4 0.5597181831) x13) (or (<= (+ x13 0.2119488806) x4) (or (>= (- y4 0.5878017918) y13) (or (>= (- y13 0.1353040446) y4))))) 
(and (or (<= (+ x4 0.5597181831) x14) (or (<= (+ x14 0.671963968) x4) (or (>= (- y4 0.5878017918) y14) (or (>= (- y14 0.0853776792) y4))))) 
(and (or (<= (+ x5 0.6078839297) x6) (or (<= (+ x6 0.6788049448) x5) (or (>= (- y5 0.5856813544) y6) (or (>= (- y6 0.4517837032) y5))))) 
(and (or (<= (+ x5 0.6078839297) x7) (or (<= (+ x7 0.8330851937) x5) (or (>= (- y5 0.5856813544) y7) (or (>= (- y7 0.3948761423) y5))))) 
(and (or (<= (+ x5 0.6078839297) x8) (or (<= (+ x8 0.689933589) x5) (or (>= (- y5 0.5856813544) y8) (or (>= (- y8 0.3063221952) y5))))) 
(and (or (<= (+ x5 0.6078839297) x9) (or (<= (+ x9 0.3391191741) x5) (or (>= (- y5 0.5856813544) y9) (or (>= (- y9 0.2449603533) y5))))) 
(and (or (<= (+ x5 0.6078839297) x10) (or (<= (+ x10 0.2747358493) x5) (or (>= (- y5 0.5856813544) y10) (or (>= (- y10 0.1835056081) y5))))) 
(and (or (<= (+ x5 0.6078839297) x11) (or (<= (+ x11 0.5854673276) x5) (or (>= (- y5 0.5856813544) y11) (or (>= (- y11 0.1711577816) y5))))) 
(and (or (<= (+ x5 0.6078839297) x12) (or (<= (+ x12 0.4329544869) x5) (or (>= (- y5 0.5856813544) y12) (or (>= (- y12 0.16938683) y5))))) 
(and (or (<= (+ x5 0.6078839297) x13) (or (<= (+ x13 0.2119488806) x5) (or (>= (- y5 0.5856813544) y13) (or (>= (- y13 0.1353040446) y5))))) 
(and (or (<= (+ x5 0.6078839297) x14) (or (<= (+ x14 0.671963968) x5) (or (>= (- y5 0.5856813544) y14) (or (>= (- y14 0.0853776792) y5))))) 
(and (or (<= (+ x6 0.6788049448) x7) (or (<= (+ x7 0.8330851937) x6) (or (>= (- y6 0.4517837032) y7) (or (>= (- y7 0.3948761423) y6))))) 
(and (or (<= (+ x6 0.6788049448) x8) (or (<= (+ x8 0.689933589) x6) (or (>= (- y6 0.4517837032) y8) (or (>= (- y8 0.3063221952) y6))))) 
(and (or (<= (+ x6 0.6788049448) x9) (or (<= (+ x9 0.3391191741) x6) (or (>= (- y6 0.4517837032) y9) (or (>= (- y9 0.2449603533) y6))))) 
(and (or (<= (+ x6 0.6788049448) x10) (or (<= (+ x10 0.2747358493) x6) (or (>= (- y6 0.4517837032) y10) (or (>= (- y10 0.1835056081) y6))))) 
(and (or (<= (+ x6 0.6788049448) x11) (or (<= (+ x11 0.5854673276) x6) (or (>= (- y6 0.4517837032) y11) (or (>= (- y11 0.1711577816) y6))))) 
(and (or (<= (+ x6 0.6788049448) x12) (or (<= (+ x12 0.4329544869) x6) (or (>= (- y6 0.4517837032) y12) (or (>= (- y12 0.16938683) y6))))) 
(and (or (<= (+ x6 0.6788049448) x13) (or (<= (+ x13 0.2119488806) x6) (or (>= (- y6 0.4517837032) y13) (or (>= (- y13 0.1353040446) y6))))) 
(and (or (<= (+ x6 0.6788049448) x14) (or (<= (+ x14 0.671963968) x6) (or (>= (- y6 0.4517837032) y14) (or (>= (- y14 0.0853776792) y6))))) 
(and (or (<= (+ x7 0.8330851937) x8) (or (<= (+ x8 0.689933589) x7) (or (>= (- y7 0.3948761423) y8) (or (>= (- y8 0.3063221952) y7))))) 
(and (or (<= (+ x7 0.8330851937) x9) (or (<= (+ x9 0.3391191741) x7) (or (>= (- y7 0.3948761423) y9) (or (>= (- y9 0.2449603533) y7))))) 
(and (or (<= (+ x7 0.8330851937) x10) (or (<= (+ x10 0.2747358493) x7) (or (>= (- y7 0.3948761423) y10) (or (>= (- y10 0.1835056081) y7))))) 
(and (or (<= (+ x7 0.8330851937) x11) (or (<= (+ x11 0.5854673276) x7) (or (>= (- y7 0.3948761423) y11) (or (>= (- y11 0.1711577816) y7))))) 
(and (or (<= (+ x7 0.8330851937) x12) (or (<= (+ x12 0.4329544869) x7) (or (>= (- y7 0.3948761423) y12) (or (>= (- y12 0.16938683) y7))))) 
(and (or (<= (+ x7 0.8330851937) x13) (or (<= (+ x13 0.2119488806) x7) (or (>= (- y7 0.3948761423) y13) (or (>= (- y13 0.1353040446) y7))))) 
(and (or (<= (+ x7 0.8330851937) x14) (or (<= (+ x14 0.671963968) x7) (or (>= (- y7 0.3948761423) y14) (or (>= (- y14 0.0853776792) y7))))) 
(and (or (<= (+ x8 0.689933589) x9) (or (<= (+ x9 0.3391191741) x8) (or (>= (- y8 0.3063221952) y9) (or (>= (- y9 0.2449603533) y8))))) 
(and (or (<= (+ x8 0.689933589) x10) (or (<= (+ x10 0.2747358493) x8) (or (>= (- y8 0.3063221952) y10) (or (>= (- y10 0.1835056081) y8))))) 
(and (or (<= (+ x8 0.689933589) x11) (or (<= (+ x11 0.5854673276) x8) (or (>= (- y8 0.3063221952) y11) (or (>= (- y11 0.1711577816) y8))))) 
(and (or (<= (+ x8 0.689933589) x12) (or (<= (+ x12 0.4329544869) x8) (or (>= (- y8 0.3063221952) y12) (or (>= (- y12 0.16938683) y8))))) 
(and (or (<= (+ x8 0.689933589) x13) (or (<= (+ x13 0.2119488806) x8) (or (>= (- y8 0.3063221952) y13) (or (>= (- y13 0.1353040446) y8))))) 
(and (or (<= (+ x8 0.689933589) x14) (or (<= (+ x14 0.671963968) x8) (or (>= (- y8 0.3063221952) y14) (or (>= (- y14 0.0853776792) y8))))) 
(and (or (<= (+ x9 0.3391191741) x10) (or (<= (+ x10 0.2747358493) x9) (or (>= (- y9 0.2449603533) y10) (or (>= (- y10 0.1835056081) y9))))) 
(and (or (<= (+ x9 0.3391191741) x11) (or (<= (+ x11 0.5854673276) x9) (or (>= (- y9 0.2449603533) y11) (or (>= (- y11 0.1711577816) y9))))) 
(and (or (<= (+ x9 0.3391191741) x12) (or (<= (+ x12 0.4329544869) x9) (or (>= (- y9 0.2449603533) y12) (or (>= (- y12 0.16938683) y9))))) 
(and (or (<= (+ x9 0.3391191741) x13) (or (<= (+ x13 0.2119488806) x9) (or (>= (- y9 0.2449603533) y13) (or (>= (- y13 0.1353040446) y9))))) 
(and (or (<= (+ x9 0.3391191741) x14) (or (<= (+ x14 0.671963968) x9) (or (>= (- y9 0.2449603533) y14) (or (>= (- y14 0.0853776792) y9))))) 
(and (or (<= (+ x10 0.2747358493) x11) (or (<= (+ x11 0.5854673276) x10) (or (>= (- y10 0.1835056081) y11) (or (>= (- y11 0.1711577816) y10))))) 
(and (or (<= (+ x10 0.2747358493) x12) (or (<= (+ x12 0.4329544869) x10) (or (>= (- y10 0.1835056081) y12) (or (>= (- y12 0.16938683) y10))))) 
(and (or (<= (+ x10 0.2747358493) x13) (or (<= (+ x13 0.2119488806) x10) (or (>= (- y10 0.1835056081) y13) (or (>= (- y13 0.1353040446) y10))))) 
(and (or (<= (+ x10 0.2747358493) x14) (or (<= (+ x14 0.671963968) x10) (or (>= (- y10 0.1835056081) y14) (or (>= (- y14 0.0853776792) y10))))) 
(and (or (<= (+ x11 0.5854673276) x12) (or (<= (+ x12 0.4329544869) x11) (or (>= (- y11 0.1711577816) y12) (or (>= (- y12 0.16938683) y11))))) 
(and (or (<= (+ x11 0.5854673276) x13) (or (<= (+ x13 0.2119488806) x11) (or (>= (- y11 0.1711577816) y13) (or (>= (- y13 0.1353040446) y11))))) 
(and (or (<= (+ x11 0.5854673276) x14) (or (<= (+ x14 0.671963968) x11) (or (>= (- y11 0.1711577816) y14) (or (>= (- y14 0.0853776792) y11))))) 
(and (or (<= (+ x12 0.4329544869) x13) (or (<= (+ x13 0.2119488806) x12) (or (>= (- y12 0.16938683) y13) (or (>= (- y13 0.1353040446) y12))))) 
(and (or (<= (+ x12 0.4329544869) x14) (or (<= (+ x14 0.671963968) x12) (or (>= (- y12 0.16938683) y14) (or (>= (- y14 0.0853776792) y12))))) 
(and (or (<= (+ x13 0.2119488806) x14) (or (<= (+ x14 0.671963968) x13) (or (>= (- y13 0.1353040446) y14) (or (>= (- y14 0.0853776792) y13))))) )))))))))))))))))))))))))))))))))))))))))))))))))))))))))))))))))))))))))))))))))))))))))))))))))))))))))))))))))))))))))))))))))))))))))))))))))))))))))))))))))))))))))))))))))))))))))))))))))))))))))))))))))))))))
(minimize c)
(check-sat)
(get-objectives)
(exit)
